5	3 0 0 0 0 0 
6	1 5 0 0 0 0 
7	1 1 4 0 0 0 
8	1 1 1 2 0 0 
9	1 1 1 1 3 0 
10	1 1 1 1 2 2 
11	2 3 1 1 3 2 
12	4 4 2 1 1 1 
13	1 2 4 2 1 1 
14	2 4 2 2 1 1 
15	1 5 3 2 2 1 
16	0 0 0 0 0 0 
17	0 0 0 0 0 0 
18	0 0 0 0 0 0 
19	0 0 0 0 0 0 
20	2 2 2 2 2 2 
	5 6 7 8 9 10 